Version identifier: 22.1.1.0 | 2022-11-28 | 9160aff4d
CPXPARAM_Threads                                 1
CPXPARAM_MIP_Strategy_VariableSelect             3
CPXPARAM_TimeLimit                               599.99997337100001
1 of 1 MIP starts provided solutions.
MIP start 'm1' defined initial solution with objective 173.0000.
Tried aggregator 1 time.
MIP Presolve eliminated 329 rows and 1260 columns.
Reduced MIP has 1887 rows, 2520 columns, and 23186 nonzeros.
Reduced MIP has 2520 binaries, 0 generals, 0 SOSs, and 0 indicators.
Presolve time = 0.01 sec. (12.72 ticks)
Probing time = 0.00 sec. (2.62 ticks)
Tried aggregator 1 time.
Detecting symmetries...
Reduced MIP has 1887 rows, 2520 columns, and 23186 nonzeros.
Reduced MIP has 2520 binaries, 0 generals, 0 SOSs, and 0 indicators.
Presolve time = 0.01 sec. (12.75 ticks)
Probing time = 0.00 sec. (2.62 ticks)
Clique table members: 940.
MIP emphasis: balance optimality and feasibility.
MIP search method: dynamic search.
Parallel mode: none, using 1 thread.
Root relaxation solution time = 0.01 sec. (13.79 ticks)

        Nodes                                         Cuts/
   Node  Left     Objective  IInf  Best Integer    Best Bound    ItCnt     Gap

*     0+    0                          173.0000     2520.0000              --- 
*     0     0      integral     0      315.0000      315.0000      612    0.00%
Elapsed time = 0.04 sec. (53.64 ticks, tree = 0.00 MB, solutions = 2)

Root node processing (before b&c):
  Real time             =    0.04 sec. (53.79 ticks)
Sequential b&c:
  Real time             =    0.00 sec. (0.00 ticks)
                          ------------
Total (root+branch&cut) =    0.04 sec. (53.79 ticks)
Primal:	315
Dual:	315
Status:	Optimal
Time:	0.05
Sequence:
	6
	4
	9
	9
	9
	9
	6
	9
	9
	9
	9
	9
	9
	6
	9
	9
	9
	9
	9
	9
	4
	9
	4
	9
	4
	9
	4
	9
	4
	9
	6
	4
	9
	4
	9
	4
	4
	9
	4
	4
	1
	4
	9
	4
	4
	9
	4
	0
	9
	9
	4
	4
	9
	9
	6
	9
	4
	9
	0
	4
	9
	6
	4
	9
	9
	9
	9
	9
	9
	9
	9
	9
	4
	4
	1
	4
	9
	9
	4
	6
	1
	0
	9
	9
	4
	0
	10
	4
	0
	1
	9
	1
	1
	9
	0
	10
	10
	4
	10
	6
	0
	9
	9
	0
	4
	1
	1
	9
	4
	4
	1
	4
	4
	0
	4
	6
	0
	4
	4
	9
	9
	4
	4
	1
	9
	4
	4
	9
	9
	4
	4
	1
	4
	4
	9
	9
	4
	4
	9
	9
	9
	4
	4
	9
	4
	4
	1
	4
	4
	9
	4
	4
	9
	4
	9
	9
	9
	9
	9
	9
	9
	9
	9
	8
	9
	9
	9
	9
	4
	4
	0
	5
	9
	4
	4
	0
	4
	4
	1
	4
	4
	9
	4
	9
	4
	0
	5
	1
	4
	4
	0
	6
	4
	9
	0
	1
	4
	0
	1
	4
	0
	4
	5
	0
	1
	9
	6
	4
	0
	4
	9
	0
	5
	9
	6
	0
	5
	9
	0
	9
	9
	9
	0
	4
	9
	4
	1
	1
	1
	4
	9
	9
	1
	1
	4
	4
	9
	4
	9
	4
	8
	9
	6
	4
	0
	9
	9
	4
	4
	1
	4
	0
	4
	4
	9
	4
	9
	1
	1
	9
	6
	0
	9
	1
	1
	9
	1
	1
	1
	4
	1
	1
	4
	1
	1
	1
	4
	1
	1
	1
	9
	1
	1
	0
	9
	1
	0
	4
	4
	9
	4
	6
	1
	1
	9
	1
	1
	1
	9
	0
	6
	9
	1
	9
	9
	0
	9
	9
	4
	9
	9
	9
	9
	4
	0
